TYPE : Vertex Cover
DIMENSION: 37
EDGE_DATA_SECTION:
0 3
0 4
0 11
0 19
0 21
0 29
0 30
1 5
1 13
1 15
1 22
1 32
1 34
1 36
2 4
2 12
2 15
2 17
2 18
2 20
2 24
2 31
2 34
3 15
3 17
3 20
3 21
3 34
4 7
4 10
4 15
4 22
4 26
5 17
5 23
5 24
5 29
5 34
6 8
6 13
6 14
6 15
6 23
6 26
6 27
6 30
7 9
7 10
7 13
7 14
7 24
7 26
7 32
8 9
8 15
8 16
8 17
8 18
8 19
8 33
9 11
9 13
9 16
9 17
9 20
9 26
9 29
9 33
10 11
10 16
10 26
10 27
10 33
11 18
11 31
11 32
11 33
12 14
12 15
12 18
12 21
12 28
12 30
13 14
13 22
13 28
13 32
14 21
15 17
15 20
15 21
15 31
16 19
16 20
16 21
16 28
16 30
16 33
17 24
17 27
17 31
17 33
17 35
18 20
18 26
18 32
19 24
19 33
19 36
20 27
20 29
20 30
20 33
21 26
21 28
21 34
21 36
22 25
22 27
22 32
22 33
22 34
23 28
23 33
24 28
25 28
25 29
25 33
26 27
26 28
26 29
26 31
26 36
28 30
28 32
28 33
28 34
28 36
29 30
29 34
30 31
30 32
32 33
-1
VERTEX_DEGREE:
7.0 7.0 9.0 6.0 7.0 6.0 8.0 8.0 8.0 10.0 7.0 7.0 7.0 8.0 5.0 11.0 9.0 11.0 7.0 6.0 10.0 10.0 8.0 4.0 6.0 4.0 12.0 6.0 13.0 8.0 9.0 6.0 9.0 13.0 8.0 1.0 5.0
VERTEX_COVER:
1 2 3 4 5 6 7 9 11 14 15 16 17 18 19 21 22 26 27 28 29 30 32 33
EOF
